BN                                     
   1.00000000000000     
     2.4688790836494179   -0.0000203937051625   -0.0000000000191720
    -1.2344572032782211    2.1381117358230393   -0.0000000000261399
    -0.0000000001087669   -0.0000000001250851   12.0000000000000000
B N 
1 1
Direct
  0.6666697627253705  0.3333329183558874  0.5000000000000000
  0.3333302372746294  0.6666670816441126  0.5000000000000000
 

