C2                                      
   1.00000000000000     
     2.5230999999999999    0.0000000000000000    0.0000000000000000
    -1.2615499999999999    2.1850689999999999    0.0000000000000000
     0.0000000000000000    0.0000000000000000   12.0000000000000000
   C 
     2
Direct
  0.6666700000000034  0.3333330000000032  0.5000000000000000
  0.3333299999999966  0.6666669999999968  0.5000000000000000
 
